\ This file has been generated by DOcplex
\ ENCODING=ISO-8859-1
\Problem name: AMC MIP Optimization

Maximize
 obj: x1 + 3 x2 - 10 x3
Subject To
 constr1: x1 + 2 x2 <= 6
 constr2: - x1 + x3 >= 2
 constr3: x1 >= 1
 constr4: x2 >= 1
 constr5: x3 >= 1

Bounds

Generals
 x1 x2 x3
End
